

























































































37 54 57 
31 42 22 
75 35 23 
9 8 44 
51 70 56 
20 6 17 
38 62 60 
55 63 61 
16 69 26 
3 15 2 
28 68 67 
46 0 71 
7 19 53 
72 13 12 
33 52 24 
48 76 14 
66 49 59 
1 34 4 43 
41 25 58 21 
73 30 45 
32 74 65 
18 39 50 
47 36 5 10 
27 29 11 
64 40 
